&CONTROL
   calculation      = 'scf'
   verbosity        = 'high'
   nstep            = 1
   tstress          = .false.
   tprnfor          = .false.
   outdir           = 'calculations'
   prefix           = 'myprefix'
   pseudo_dir       = '/absolute/path/to/pseudo_dir'
/
&SYSTEM
   nbnd             = 24
   ecutwfc          = 50
   ecutrho          = 400
   occupations      = 'fixed'
   degauss          = 0.001
   smearing         = 'gaussian'
   nspin            = 1
   ntyp             = 4
   nat              = 4
   ibrav            = 0
/
&ELECTRONS
   electron_maxstep = 300
   mixing_mode      = 'plain'
   mixing_beta      = 0.7
   diagonalization  = 'david'
/
&IONS
/
&CELL
/
&FCP
/
&RISM
/
ATOMIC_SPECIES
Cl 35.45 cl_pbe_v1.4.uspp.F.UPF
F 18.998403163 f_pbe_v1.4.uspp.F.UPF
Na 22.98976928 na_pbe_v1.5.uspp.F.UPF
Li 6.94 li_pbe_v1.4.uspp.F.UPF

K_POINTS automatic
6 6 6  0 0 0

CELL_PARAMETERS angstrom
4.87366146598363 0.00000000000000 -1.72309965928431
-2.43683096564317 4.22071450466580 -1.72309965928431
0.00000000000000 0.00000000000000 5.16929864883423

ATOMIC_POSITIONS angstrom
Cl 1.2184150323 2.1103566234 -1.7230991971  
F -1.2184151823 2.1103568750 1.7230996196  
Na -0.0000002327 4.2207140015 -0.0000003186  
Li 0.0000000000 0.0000000000 0.0000000000  

